unsat
(error "line 1100 column 17: model is not available")
(error "line 1101 column 17: model is not available")
(error "line 1102 column 18: model is not available")
(error "line 1103 column 18: model is not available")
(error "line 1104 column 18: model is not available")
(error "line 1105 column 18: model is not available")
(error "line 1106 column 18: model is not available")
(error "line 1107 column 18: model is not available")
(error "line 1108 column 18: model is not available")
(error "line 1109 column 18: model is not available")
(error "line 1110 column 18: model is not available")
(error "line 1111 column 18: model is not available")
(error "line 1112 column 17: model is not available")
(error "line 1113 column 18: model is not available")
(error "line 1114 column 18: model is not available")
(error "line 1115 column 18: model is not available")
(error "line 1116 column 18: model is not available")
(error "line 1117 column 18: model is not available")
(error "line 1118 column 18: model is not available")
(error "line 1119 column 18: model is not available")
(error "line 1120 column 18: model is not available")
(error "line 1121 column 18: model is not available")
(error "line 1122 column 18: model is not available")
(error "line 1123 column 17: model is not available")
(error "line 1124 column 18: model is not available")
(error "line 1125 column 18: model is not available")
(error "line 1126 column 18: model is not available")
(error "line 1127 column 18: model is not available")
(error "line 1128 column 18: model is not available")
(error "line 1129 column 18: model is not available")
(error "line 1130 column 18: model is not available")
(error "line 1131 column 18: model is not available")
(error "line 1132 column 18: model is not available")
(error "line 1133 column 18: model is not available")
(error "line 1134 column 17: model is not available")
(error "line 1135 column 18: model is not available")
(error "line 1136 column 18: model is not available")
(error "line 1137 column 18: model is not available")
(error "line 1138 column 18: model is not available")
(error "line 1139 column 18: model is not available")
(error "line 1140 column 18: model is not available")
(error "line 1141 column 18: model is not available")
(error "line 1142 column 18: model is not available")
(error "line 1143 column 18: model is not available")
(error "line 1144 column 18: model is not available")
(error "line 1145 column 17: model is not available")
(error "line 1146 column 18: model is not available")
(error "line 1147 column 18: model is not available")
(error "line 1148 column 18: model is not available")
(error "line 1149 column 18: model is not available")
(error "line 1150 column 18: model is not available")
(error "line 1151 column 18: model is not available")
(error "line 1152 column 18: model is not available")
(error "line 1153 column 17: model is not available")
(error "line 1154 column 17: model is not available")
(error "line 1155 column 17: model is not available")
(error "line 1156 column 17: model is not available")
(error "line 1157 column 38: model is not available")
(error "line 1158 column 45: model is not available")
(error "line 1159 column 38: model is not available")
(error "line 1160 column 45: model is not available")
(error "line 1161 column 46: model is not available")
(error "line 1162 column 53: model is not available")
(error "line 1163 column 40: model is not available")
(error "line 1164 column 47: model is not available")
(error "line 1165 column 38: model is not available")
(error "line 1166 column 45: model is not available")
(error "line 1167 column 38: model is not available")
(error "line 1168 column 45: model is not available")
(error "line 1169 column 41: model is not available")
(error "line 1170 column 48: model is not available")
(error "line 1171 column 41: model is not available")
(error "line 1172 column 48: model is not available")
(error "line 1173 column 37: model is not available")
(error "line 1174 column 44: model is not available")
(error "line 1175 column 42: model is not available")
(error "line 1176 column 42: model is not available")
(error "line 1177 column 38: model is not available")
(error "line 1178 column 38: model is not available")
(error "line 1179 column 38: model is not available")
(error "line 1180 column 41: model is not available")
(error "line 1181 column 48: model is not available")
(error "line 1182 column 45: model is not available")
(error "line 1183 column 45: model is not available")
(error "line 1184 column 45: model is not available")
(error "line 1185 column 45: model is not available")
(error "line 1186 column 67: model is not available")
(error "line 1187 column 38: model is not available")
(error "line 1188 column 38: model is not available")
(error "line 1189 column 38: model is not available")
(error "line 1190 column 38: model is not available")
(error "line 1191 column 38: model is not available")
(error "line 1192 column 36: model is not available")
(error "line 1193 column 29: model is not available")
(error "line 1194 column 31: model is not available")
(error "line 1195 column 38: model is not available")
(error "line 1196 column 31: model is not available")
(error "line 1197 column 38: model is not available")
(error "line 1198 column 23: model is not available")
(error "line 1199 column 30: model is not available")
(error "line 1200 column 23: model is not available")
(error "line 1201 column 30: model is not available")
(error "line 1202 column 23: model is not available")
(error "line 1203 column 30: model is not available")
(error "line 1204 column 23: model is not available")
(error "line 1205 column 30: model is not available")
(error "line 1206 column 23: model is not available")
(error "line 1207 column 30: model is not available")
(error "line 1208 column 52: model is not available")
(error "line 1209 column 52: model is not available")
(error "line 1210 column 52: model is not available")
(error "line 1211 column 52: model is not available")
(error "line 1212 column 51: model is not available")
(error "line 1213 column 52: model is not available")
(error "line 1214 column 52: model is not available")
(error "line 1215 column 52: model is not available")
(error "line 1216 column 52: model is not available")
(error "line 1217 column 52: model is not available")
(error "line 1218 column 52: model is not available")
(error "line 1219 column 52: model is not available")
(error "line 1220 column 52: model is not available")
(error "line 1221 column 52: model is not available")
(error "line 1222 column 52: model is not available")
(error "line 1223 column 52: model is not available")
(error "line 1224 column 53: model is not available")
(error "line 1225 column 52: model is not available")
(error "line 1226 column 52: model is not available")
(error "line 1227 column 52: model is not available")
(error "line 1228 column 52: model is not available")
(error "line 1229 column 50: model is not available")
(error "line 1230 column 50: model is not available")
(error "line 1231 column 51: model is not available")
(error "line 1232 column 51: model is not available")
(error "line 1233 column 51: model is not available")
(error "line 1234 column 51: model is not available")
(error "line 1235 column 50: model is not available")
(error "line 1236 column 56: model is not available")
(error "line 1237 column 57: model is not available")
(error "line 1238 column 56: model is not available")
(error "line 1239 column 56: model is not available")
(error "line 1240 column 31: model is not available")
(error "line 1241 column 38: model is not available")
(error "line 1242 column 31: model is not available")
(error "line 1243 column 38: model is not available")
(error "line 1244 column 31: model is not available")
(error "line 1245 column 31: model is not available")
(error "line 1246 column 31: model is not available")
(error "line 1247 column 38: model is not available")
(error "line 1248 column 46: model is not available")
(error "line 1249 column 46: model is not available")
(error "line 1250 column 54: model is not available")
(error "line 1251 column 54: model is not available")
(error "line 1252 column 54: model is not available")
(error "line 1253 column 40: model is not available")
(error "line 1254 column 40: model is not available")
(error "line 1255 column 41: model is not available")
(error "line 1256 column 41: model is not available")
(error "line 1257 column 50: model is not available")
(error "line 1258 column 50: model is not available")
(error "line 1259 column 43: model is not available")
(error "line 1260 column 43: model is not available")
(error "line 1261 column 34: model is not available")
(error "line 1262 column 36: model is not available")
(error "line 1263 column 43: model is not available")
(error "line 1264 column 37: model is not available")
(error "line 1265 column 44: model is not available")
(error "line 1266 column 37: model is not available")
(error "line 1267 column 44: model is not available")
(error "line 1268 column 37: model is not available")
(error "line 1269 column 44: model is not available")
(error "line 1270 column 37: model is not available")
(error "line 1271 column 44: model is not available")
(error "line 1272 column 36: model is not available")
(error "line 1273 column 36: model is not available")
(error "line 1274 column 43: model is not available")
(error "line 1275 column 36: model is not available")
(error "line 1276 column 36: model is not available")
(error "line 1277 column 36: model is not available")
(error "line 1278 column 36: model is not available")
(error "line 1279 column 36: model is not available")
(error "line 1280 column 43: model is not available")
(error "line 1281 column 36: model is not available")
(error "line 1282 column 43: model is not available")
(error "line 1283 column 41: model is not available")
(error "line 1284 column 36: model is not available")
(error "line 1285 column 36: model is not available")
(error "line 1286 column 36: model is not available")
(error "line 1287 column 36: model is not available")
(error "line 1288 column 36: model is not available")
(error "line 1289 column 31: model is not available")
(error "line 1290 column 33: model is not available")
(error "line 1291 column 40: model is not available")
(error "line 1292 column 33: model is not available")
(error "line 1293 column 33: model is not available")
(error "line 1294 column 33: model is not available")
(error "line 1295 column 33: model is not available")
(error "line 1296 column 40: model is not available")
(error "line 1297 column 33: model is not available")
(error "line 1298 column 40: model is not available")
(error "line 1299 column 38: model is not available")
(error "line 1300 column 28: model is not available")
(error "line 1301 column 30: model is not available")
(error "line 1302 column 36: model is not available")
(error "line 1303 column 30: model is not available")
(error "line 1304 column 18: model is not available")
(error "line 1305 column 20: model is not available")
(error "line 1306 column 27: model is not available")
(error "line 1307 column 20: model is not available")
(error "line 1308 column 27: model is not available")
(error "line 1309 column 20: model is not available")
(error "line 1310 column 27: model is not available")
(error "line 1311 column 20: model is not available")
(error "line 1312 column 20: model is not available")
(error "line 1313 column 20: model is not available")
(error "line 1314 column 20: model is not available")
(error "line 1315 column 27: model is not available")
(error "line 1316 column 20: model is not available")
(error "line 1317 column 27: model is not available")
(error "line 1319 column 10: model is not available")
(:added-eqs                      202
 :arith-bound-propagations-cheap 4
 :arith-bound-propagations-lp    23
 :arith-lower                    31
 :arith-make-feasible            1
 :arith-max-columns              94
 :arith-max-rows                 65
 :arith-propagations             4
 :arith-upper                    15
 :array-ax1                      1
 :binary-propagations            27
 :bv-bit2core                    2080
 :bv-dynamic-diseqs              2
 :conflicts                      1
 :eliminated-applications        22
 :eliminated-vars                21
 :max-memory                     4.51
 :memory                         3.03
 :mk-bool-var                    2669
 :mk-clause                      29
 :num-allocs                     1167912
 :num-checks                     1
 :propagations                   34
 :rlimit-count                   40843
 :time                           0.01
 :total-time                     0.02)

real	0m0.021s
user	0m0.020s
sys	0m0.000s
State: RE Run_time: 0.02277684211730957